# Objective value = 7
x0,1_4 1
x0,1_6 0
x0,1_8 0
x0,1_25 0
x0,1_33 0
x0,1_47 0
x0,1_53 0
x0,1_62 0
x0,1_68 0
x0,1_72 0
x0,2_4 0
x0,2_6 0
x0,2_8 0
x0,2_25 1
x0,2_33 0
x0,2_47 0
x0,2_53 0
x0,2_62 0
x0,2_68 0
x0,2_72 0
x0,3_4 0
x0,3_6 0
x0,3_8 0
x0,3_25 0
x0,3_33 1
x0,3_47 0
x0,3_53 0
x0,3_62 0
x0,3_68 0
x0,3_72 0
x0,4_4 0
x0,4_6 0
x0,4_8 0
x0,4_25 0
x0,4_33 0
x0,4_47 0
x0,4_53 0
x0,4_62 0
x0,4_68 0
x0,4_72 1
x0,5_4 0
x0,5_6 0
x0,5_8 0
x0,5_25 0
x0,5_33 0
x0,5_47 0
x0,5_53 0
x0,5_62 0
x0,5_68 0
x0,5_72 0
x0,6_4 0
x0,6_6 0
x0,6_8 0
x0,6_25 0
x0,6_33 0
x0,6_47 0
x0,6_53 0
x0,6_62 0
x0,6_68 0
x0,6_72 0
x0,7_4 0
x0,7_6 0
x0,7_8 0
x0,7_25 0
x0,7_33 0
x0,7_47 0
x0,7_53 0
x0,7_62 0
x0,7_68 0
x0,7_72 0
x0,8_4 0
x0,8_6 0
x0,8_8 0
x0,8_25 0
x0,8_33 0
x0,8_47 0
x0,8_53 0
x0,8_62 0
x0,8_68 0
x0,8_72 0
x0,9_4 0
x0,9_6 0
x0,9_8 0
x0,9_25 0
x0,9_33 0
x0,9_47 0
x0,9_53 0
x0,9_62 0
x0,9_68 0
x0,9_72 0
x0,10_4 0
x0,10_6 0
x0,10_8 0
x0,10_25 0
x0,10_33 0
x0,10_47 0
x0,10_53 0
x0,10_62 0
x0,10_68 0
x0,10_72 0
x1,2_4 0
x1,2_6 0
x1,2_8 0
x1,2_25 0
x1,2_33 0
x1,2_47 0
x1,2_53 0
x1,2_62 0
x1,2_68 0
x1,2_72 0
x1,3_4 0
x1,3_6 0
x1,3_8 0
x1,3_25 0
x1,3_33 0
x1,3_47 0
x1,3_53 0
x1,3_62 0
x1,3_68 0
x1,3_72 0
x1,4_4 0
x1,4_6 0
x1,4_8 0
x1,4_25 0
x1,4_33 0
x1,4_47 0
x1,4_53 0
x1,4_62 0
x1,4_68 1
x1,4_72 0
x1,5_4 0
x1,5_6 0
x1,5_8 0
x1,5_25 0
x1,5_33 0
x1,5_47 0
x1,5_53 0
x1,5_62 0
x1,5_68 0
x1,5_72 0
x1,6_4 0
x1,6_6 0
x1,6_8 0
x1,6_25 0
x1,6_33 0
x1,6_47 0
x1,6_53 0
x1,6_62 0
x1,6_68 0
x1,6_72 0
x1,7_4 0
x1,7_6 0
x1,7_8 0
x1,7_25 0
x1,7_33 0
x1,7_47 0
x1,7_53 0
x1,7_62 0
x1,7_68 0
x1,7_72 0
x1,8_4 0
x1,8_6 0
x1,8_8 0
x1,8_25 0
x1,8_33 0
x1,8_47 0
x1,8_53 0
x1,8_62 0
x1,8_68 0
x1,8_72 0
x1,9_4 0
x1,9_6 0
x1,9_8 0
x1,9_25 0
x1,9_33 0
x1,9_47 0
x1,9_53 0
x1,9_62 0
x1,9_68 0
x1,9_72 0
x1,10_4 0
x1,10_6 0
x1,10_8 0
x1,10_25 0
x1,10_33 0
x1,10_47 0
x1,10_53 0
x1,10_62 0
x1,10_68 0
x1,10_72 0
x2,3_4 0
x2,3_6 0
x2,3_8 1
x2,3_25 0
x2,3_33 0
x2,3_47 0
x2,3_53 0
x2,3_62 0
x2,3_68 0
x2,3_72 0
x2,4_4 0
x2,4_6 0
x2,4_8 0
x2,4_25 0
x2,4_33 0
x2,4_47 1
x2,4_53 0
x2,4_62 0
x2,4_68 0
x2,4_72 0
x2,5_4 0
x2,5_6 0
x2,5_8 0
x2,5_25 0
x2,5_33 0
x2,5_47 0
x2,5_53 1
x2,5_62 0
x2,5_68 0
x2,5_72 0
x2,6_4 0
x2,6_6 0
x2,6_8 0
x2,6_25 0
x2,6_33 0
x2,6_47 0
x2,6_53 0
x2,6_62 1
x2,6_68 0
x2,6_72 0
x2,7_4 0
x2,7_6 0
x2,7_8 0
x2,7_25 0
x2,7_33 0
x2,7_47 0
x2,7_53 0
x2,7_62 0
x2,7_68 0
x2,7_72 0
x2,8_4 0
x2,8_6 0
x2,8_8 0
x2,8_25 0
x2,8_33 0
x2,8_47 0
x2,8_53 0
x2,8_62 0
x2,8_68 0
x2,8_72 0
x2,9_4 0
x2,9_6 0
x2,9_8 0
x2,9_25 0
x2,9_33 0
x2,9_47 0
x2,9_53 0
x2,9_62 0
x2,9_68 0
x2,9_72 0
x2,10_4 0
x2,10_6 0
x2,10_8 0
x2,10_25 0
x2,10_33 0
x2,10_47 0
x2,10_53 0
x2,10_62 0
x2,10_68 0
x2,10_72 0
x3,4_4 0
x3,4_6 0
x3,4_8 0
x3,4_25 0
x3,4_33 0
x3,4_47 0
x3,4_53 0
x3,4_62 0
x3,4_68 0
x3,4_72 0
x3,5_4 0
x3,5_6 0
x3,5_8 0
x3,5_25 0
x3,5_33 0
x3,5_47 0
x3,5_53 0
x3,5_62 0
x3,5_68 0
x3,5_72 0
x3,6_4 0
x3,6_6 0
x3,6_8 0
x3,6_25 0
x3,6_33 0
x3,6_47 0
x3,6_53 0
x3,6_62 0
x3,6_68 0
x3,6_72 0
x3,7_4 0
x3,7_6 0
x3,7_8 0
x3,7_25 0
x3,7_33 0
x3,7_47 0
x3,7_53 0
x3,7_62 0
x3,7_68 0
x3,7_72 0
x3,8_4 0
x3,8_6 0
x3,8_8 0
x3,8_25 0
x3,8_33 0
x3,8_47 0
x3,8_53 0
x3,8_62 0
x3,8_68 0
x3,8_72 0
x3,9_4 0
x3,9_6 0
x3,9_8 0
x3,9_25 0
x3,9_33 0
x3,9_47 0
x3,9_53 0
x3,9_62 0
x3,9_68 0
x3,9_72 0
x3,10_4 0
x3,10_6 0
x3,10_8 0
x3,10_25 0
x3,10_33 0
x3,10_47 0
x3,10_53 0
x3,10_62 0
x3,10_68 0
x3,10_72 0
x4,5_4 0
x4,5_6 1
x4,5_8 0
x4,5_25 0
x4,5_33 0
x4,5_47 0
x4,5_53 0
x4,5_62 0
x4,5_68 0
x4,5_72 0
x4,6_4 0
x4,6_6 0
x4,6_8 0
x4,6_25 0
x4,6_33 0
x4,6_47 0
x4,6_53 0
x4,6_62 0
x4,6_68 0
x4,6_72 0
x4,7_4 0
x4,7_6 0
x4,7_8 0
x4,7_25 0
x4,7_33 0
x4,7_47 0
x4,7_53 0
x4,7_62 0
x4,7_68 0
x4,7_72 0
x4,8_4 0
x4,8_6 0
x4,8_8 0
x4,8_25 0
x4,8_33 0
x4,8_47 0
x4,8_53 0
x4,8_62 0
x4,8_68 0
x4,8_72 0
x4,9_4 0
x4,9_6 0
x4,9_8 0
x4,9_25 0
x4,9_33 0
x4,9_47 0
x4,9_53 0
x4,9_62 0
x4,9_68 0
x4,9_72 0
x4,10_4 0
x4,10_6 0
x4,10_8 0
x4,10_25 0
x4,10_33 0
x4,10_47 0
x4,10_53 0
x4,10_62 0
x4,10_68 0
x4,10_72 0
x5,6_4 0
x5,6_6 0
x5,6_8 0
x5,6_25 0
x5,6_33 0
x5,6_47 0
x5,6_53 0
x5,6_62 0
x5,6_68 0
x5,6_72 0
x5,7_4 0
x5,7_6 0
x5,7_8 0
x5,7_25 0
x5,7_33 0
x5,7_47 0
x5,7_53 0
x5,7_62 0
x5,7_68 0
x5,7_72 0
x5,8_4 0
x5,8_6 0
x5,8_8 0
x5,8_25 0
x5,8_33 0
x5,8_47 0
x5,8_53 0
x5,8_62 0
x5,8_68 0
x5,8_72 0
x5,9_4 0
x5,9_6 0
x5,9_8 0
x5,9_25 0
x5,9_33 0
x5,9_47 0
x5,9_53 0
x5,9_62 0
x5,9_68 0
x5,9_72 0
x5,10_4 0
x5,10_6 0
x5,10_8 0
x5,10_25 0
x5,10_33 0
x5,10_47 0
x5,10_53 0
x5,10_62 0
x5,10_68 0
x5,10_72 0
x6,7_4 0
x6,7_6 0
x6,7_8 0
x6,7_25 0
x6,7_33 0
x6,7_47 0
x6,7_53 0
x6,7_62 0
x6,7_68 0
x6,7_72 0
x6,8_4 0
x6,8_6 0
x6,8_8 0
x6,8_25 0
x6,8_33 0
x6,8_47 0
x6,8_53 0
x6,8_62 0
x6,8_68 0
x6,8_72 0
x6,9_4 0
x6,9_6 0
x6,9_8 0
x6,9_25 0
x6,9_33 0
x6,9_47 0
x6,9_53 0
x6,9_62 0
x6,9_68 0
x6,9_72 0
x6,10_4 0
x6,10_6 0
x6,10_8 0
x6,10_25 0
x6,10_33 0
x6,10_47 0
x6,10_53 0
x6,10_62 0
x6,10_68 0
x6,10_72 0
x7,8_4 0
x7,8_6 0
x7,8_8 0
x7,8_25 0
x7,8_33 0
x7,8_47 0
x7,8_53 0
x7,8_62 0
x7,8_68 0
x7,8_72 0
x7,9_4 0
x7,9_6 0
x7,9_8 0
x7,9_25 0
x7,9_33 0
x7,9_47 0
x7,9_53 0
x7,9_62 0
x7,9_68 0
x7,9_72 0
x7,10_4 0
x7,10_6 0
x7,10_8 0
x7,10_25 0
x7,10_33 0
x7,10_47 0
x7,10_53 0
x7,10_62 0
x7,10_68 0
x7,10_72 0
x8,9_4 0
x8,9_6 0
x8,9_8 0
x8,9_25 0
x8,9_33 0
x8,9_47 0
x8,9_53 0
x8,9_62 0
x8,9_68 0
x8,9_72 0
x8,10_4 0
x8,10_6 0
x8,10_8 0
x8,10_25 0
x8,10_33 0
x8,10_47 0
x8,10_53 0
x8,10_62 0
x8,10_68 0
x8,10_72 0
x9,10_4 0
x9,10_6 0
x9,10_8 0
x9,10_25 0
x9,10_33 0
x9,10_47 0
x9,10_53 0
x9,10_62 0
x9,10_68 0
x9,10_72 0
z0 1
z1 1
z2 1
z3 1
z4 1
z5 1
z6 1
z7 0
z8 0
z9 0
z10 0
p0 13
p1 17
p2 38
p3 46
p4 85
p5 91
p6 100
p7 101
p8 102
p9 103
p10 104
